res_glpk/3_44.log
GLPSOL--GLPK LP/MIP Solver 5.0
Parameter(s) specified in the command line:
 --lp ../modeles/3_44.lp --log 3_44.log
Reading problem data from '../modeles/3_44.lp'...
145 rows, 270 columns, 933 non-zeros
132 integer variables, all of which are binary
424 lines were read
GLPK Integer Optimizer 5.0
145 rows, 270 columns, 933 non-zeros
132 integer variables, all of which are binary
Preprocessing...
126 constraint coefficient(s) were reduced
145 rows, 267 columns, 930 non-zeros
132 integer variables, all of which are binary
Scaling...
 A: min|aij| =  8.264e-03  max|aij| =  4.000e+00  ratio =  4.840e+02
GM: min|aij| =  2.132e-01  max|aij| =  4.690e+00  ratio =  2.200e+01
EQ: min|aij| =  4.545e-02  max|aij| =  1.000e+00  ratio =  2.200e+01
2N: min|aij| =  3.125e-02  max|aij| =  1.675e+00  ratio =  5.359e+01
Constructing initial basis...
Size of triangular part is 145
Solving LP relaxation...
GLPK Simplex Optimizer 5.0
145 rows, 267 columns, 930 non-zeros
      0: obj =   6.000000000e+00 inf =   1.450e+01 (7)
     26: obj =   9.449636552e-02 inf =   0.000e+00 (0)
*    71: obj =  -1.727272727e+00 inf =   2.120e-16 (0)
OPTIMAL LP SOLUTION FOUND
Integer optimization begins...
Long-step dual simplex will be used
+    71: mip =     not found yet >=              -inf        (1; 0)
+   116: >>>>>  -1.727272727e+00 >=  -1.727272727e+00   0.0% (45; 0)
+   116: mip =  -1.727272727e+00 >=     tree is empty   0.0% (0; 89)
INTEGER OPTIMAL SOLUTION FOUND
Time used:   0.0 secs
Memory used: 0.4 Mb (457131 bytes)
